8458
1 1 0 0 0 1 1 1 1 1 0 1 1 0 0 1 1 0 0 1
1 19 12 11 11 0 6 11 9 9 6 6 11 1 7 11 7 9 19 8 5 6 12 8 15 6 15 11 1 7 1 19 16 12 11 0 6 11 9 7 6 6 11 8 7 0 6 11 8 8 1 0 15 12 8 5 7 12 8 8 5 6 19 0 15 5 16 19 0 11 11 19 12 19 11 0 6 9 9 0 7 6 19 8 1 0 7 9 15 0 5 16 19 0 11 0 6 9 15 0